files/upTests/__reps/ExplicitVarSizeWithDefault/smallerNested/0001.eprime.solution
language ESSENCE' 1.0
$ minion Nodes: 7
$ minion TotalTime: 0.001913
$ Savile Row TotalTime: 0.307
letting s_Explicit_ExplicitVarSizeWithDefault be [[0, 1, 2, 3;int(1..4)], 
[0, 1, 2, 4;int(1..4)];int(1..2)]
